#######################################
### Exact MIP solver for the HHCRSP ###
#######################################
-- Instance file: new-instances/HHCRSP_200_40_53_1.2_C_C.txt
-- Max threads: 4
-- Time limit: 999999 seconds
-- Use initial solution: No
Trivial flow violations prevented generating 361238 variables.
Version identifier: 20.1.0.0 | 2020-11-10 | 9bedb6d68
CPXPARAM_Threads                                 4
CPXPARAM_TimeLimit                               999999
Parallel mode: deterministic, using up to 4 threads for concurrent optimization:
 * Starting dual Simplex on 1 thread...
 * Starting Barrier on 3 threads...
Tried aggregator 1 time.
LP Presolve eliminated 22716 rows and 5883 columns.
Reduced LP has 436934 rows, 415639 columns, and 7846498 nonzeros.
Presolve time = 16.49 sec. (1798.45 ticks)
Symmetry aggregator did 693070 additional substitutions.
Initializing dual steep norms . . .

Iteration log . . .
Iteration:     1   Dual objective     =             0.333333

Dual crossover.
  Dual:  Fixing 694 variables.
      693 DMoves:  Infeasibility  9.11659638e-13  Objective  2.01666667e+02
        0 DMoves:  Infeasibility  5.21263590e-13  Objective  2.01666667e+02
  Dual:  Pushed 40, exchanged 654.
  Primal:  Fixing 722 variables.
      721 PMoves:  Infeasibility  4.57966998e-16  Objective  2.01666667e+02
        0 PMoves:  Infeasibility  1.34614542e-15  Objective  2.01666667e+02
  Primal:  Pushed 625, exchanged 97.

Dual simplex solved model.


Solution status from MIP model:
-- Processing time: 26.21 sec.
-- Memory used: 500.126 MB
-- Best bound: inf
-- Obj value: 201.667
-- Gap: inf%
-- Total distance: 605
-- Total tardiness: 0
-- Largest tardiness: 0
